NAME          
ROWS
 N  OBJ
 L  c1
 L  c2
COLUMNS
    MARKER    'MARKER'                 'INTORG'
    x[1]      c1        36
    x[1]      c2        719
    x[1]      OBJ       -80
    x[2]      c1        933
    x[2]      c2        454
    x[2]      OBJ       -326
    x[3]      c1        792
    x[3]      c2        646
    x[3]      OBJ       -487
    x[4]      c1        392
    x[4]      c2        852
    x[4]      OBJ       -40
    x[5]      c1        229
    x[5]      c2        835
    x[5]      OBJ       -980
    x[6]      c1        458
    x[6]      c2        688
    x[6]      OBJ       -986
    x[7]      c1        74
    x[7]      c2        920
    x[7]      OBJ       -653
    x[8]      c1        685
    x[8]      c2        179
    x[8]      OBJ       -522
    x[9]      c1        384
    x[9]      c2        821
    x[9]      OBJ       -278
    x[10]     c1        34
    x[10]     c2        748
    x[10]     OBJ       -710
    x[11]     c1        317
    x[11]     c2        348
    x[11]     OBJ       -373
    x[12]     c1        597
    x[12]     c2        79
    x[12]     OBJ       -549
    x[13]     c1        831
    x[13]     c2        359
    x[13]     OBJ       -815
    x[14]     c1        643
    x[14]     c2        122
    x[14]     OBJ       -938
    x[15]     c1        488
    x[15]     c2        916
    x[15]     OBJ       -410
    x[16]     c1        315
    x[16]     c2        471
    x[16]     OBJ       -608
    x[17]     c1        582
    x[17]     c2        175
    x[17]     OBJ       -498
    x[18]     c1        65
    x[18]     c2        610
    x[18]     OBJ       -225
    x[19]     c1        212
    x[19]     c2        264
    x[19]     OBJ       -685
    x[20]     c1        655
    x[20]     c2        851
    x[20]     OBJ       -423
    x[21]     c1        142
    x[21]     c2        497
    x[21]     OBJ       -483
    x[22]     c1        433
    x[22]     c2        840
    x[22]     OBJ       -661
    x[23]     c1        438
    x[23]     c2        674
    x[23]     OBJ       -237
    x[24]     c1        604
    x[24]     c2        514
    x[24]     OBJ       -125
    x[25]     c1        602
    x[25]     c2        988
    x[25]     OBJ       -455
    x[26]     c1        600
    x[26]     c2        553
    x[26]     OBJ       -513
    x[27]     c1        605
    x[27]     c2        160
    x[27]     OBJ       -5
    x[28]     c1        940
    x[28]     c2        613
    x[28]     OBJ       -853
    x[29]     c1        965
    x[29]     c2        827
    x[29]     OBJ       -219
    x[30]     c1        151
    x[30]     c2        593
    x[30]     OBJ       -397
    x[31]     c1        106
    x[31]     c2        910
    x[31]     OBJ       -955
    x[32]     c1        902
    x[32]     c2        479
    x[32]     OBJ       -931
    x[33]     c1        173
    x[33]     c2        708
    x[33]     OBJ       -999
    x[34]     c1        697
    x[34]     c2        120
    x[34]     OBJ       -97
    x[35]     c1        26
    x[35]     c2        514
    x[35]     OBJ       -706
    x[36]     c1        887
    x[36]     c2        223
    x[36]     OBJ       -955
    x[37]     c1        950
    x[37]     c2        868
    x[37]     OBJ       -879
    x[38]     c1        165
    x[38]     c2        852
    x[38]     OBJ       -423
    x[39]     c1        198
    x[39]     c2        671
    x[39]     OBJ       -803
    x[40]     c1        35
    x[40]     c2        18
    x[40]     OBJ       -235
RHS
    rhs       c1        9170
    rhs       c2        11340
RANGES
BOUNDS
 BV bounds    x[1]
 BV bounds    x[2]
 BV bounds    x[3]
 BV bounds    x[4]
 BV bounds    x[5]
 BV bounds    x[6]
 BV bounds    x[7]
 BV bounds    x[8]
 BV bounds    x[9]
 BV bounds    x[10]
 BV bounds    x[11]
 BV bounds    x[12]
 BV bounds    x[13]
 BV bounds    x[14]
 BV bounds    x[15]
 BV bounds    x[16]
 BV bounds    x[17]
 BV bounds    x[18]
 BV bounds    x[19]
 BV bounds    x[20]
 BV bounds    x[21]
 BV bounds    x[22]
 BV bounds    x[23]
 BV bounds    x[24]
 BV bounds    x[25]
 BV bounds    x[26]
 BV bounds    x[27]
 BV bounds    x[28]
 BV bounds    x[29]
 BV bounds    x[30]
 BV bounds    x[31]
 BV bounds    x[32]
 BV bounds    x[33]
 BV bounds    x[34]
 BV bounds    x[35]
 BV bounds    x[36]
 BV bounds    x[37]
 BV bounds    x[38]
 BV bounds    x[39]
 BV bounds    x[40]
ENDATA
